(set-info :Origin "This instance was generated by: BanditFuzz-- an RL fuzzer for SMT solvers" )
(set-info :Author "Joe Scott, Fed Mora, Vijay Ganesh" )
(set-info :Contact "Joe Scott, joseph.scott@uwaterloo.ca")
(set-logic QF_BV)
(declare-const bool_0 Bool)
(declare-const bool_1 Bool)
(declare-const bool_2 Bool)
(declare-const bool_3 Bool)
(declare-const bool_4 Bool)
(declare-const bv_0 (_ BitVec 32))
(declare-const bv_1 (_ BitVec 32))
(declare-const bv_2 (_ BitVec 32))
(declare-const bv_3 (_ BitVec 32))
(declare-const bv_4 (_ BitVec 32))
(assert (bvsge (bvlshr (bvmul bv_4 bv_3) (bvlshr #xa9493b55  bv_1)) (bvand (bvnor #x58dd3646  #xf88a5cca ) (bvnand #x0e9630a2  #x8f8194c4 ))))
(assert (or (or (=> bool_0 true) (=> bool_3 true)) (bvuge (bvand bv_0 #x1fe6c3cb ) (bvand #x30ae0d30  #x4dd182f2 ))))
(assert (bvult (bvxor (bvadd bv_4 bv_2) (bvadd #x2cc70e23  bv_2)) (bvlshr (bvnand #xa68eb55e  #x3304e007 ) (bvxor #xdfa28774  bv_0))))
(assert (bvugt (bvsrem (bvnor bv_2 #x8a15f408 ) (bvurem bv_1 bv_4)) (bvsub (bvudiv #x497a6318  bv_0) (bvmul bv_2 bv_3))))
(assert (bvugt (bvsmod (bvshl #xbd1f4645  bv_3) (bvor #xc70f541a  bv_2)) (bvand (bvsdiv #x68c4ef06  bv_3) (bvadd #x3f341006  bv_0))))
(check-sat)
(exit)
